WARNING: for repeatability, setting FPU to use double precision
============================[ Problem Statistics ]=============================
|                                                                             |
|  Number of variables:           100                                         |
|  Number of clauses:             449                                         |
|  Parse time:                   0.00 s                                       |
|  Eliminated clauses:           0.00 Mb                                      |
|  Simplification time:          0.00 s                                       |
|                                                                             |
============================[ Search Statistics ]==============================
| Conflicts |          ORIGINAL         |          LEARNT          | Progress |
|           |    Vars  Clauses Literals |    Limit  Clauses Lit/Cl |          |
===============================================================================
|       100 |      97      446     1358 |      163      100      7 |  0.010 % |
|       250 |      96      431     1313 |      179      119      6 |  1.040 % |
===============================================================================
restarts              : 3
conflicts             : 348            (53671 /sec)
decisions             : 427            (0.00 % random) (65854 /sec)
propagations          : 7877           (1214837 /sec)
conflict literals     : 1962           (21.55 % deleted)
Memory used           : 13.00 MB
CPU time              : 0.006484 s

SATISFIABLE
